(set-logic ALL)
(declare-fun var0 () String)
(assert (str.in_re var0 (re.++ (re.* (re.* (str.to_re "000"))) (re.++ (re.* (re.union (str.to_re "111") (str.to_re "22"))) (re.++ (re.* (re.union (str.to_re "333") (str.to_re "4"))) (re.++ (re.union (re.union (str.to_re "5") (str.to_re "6")) (re.union (str.to_re "7") (str.to_re "888"))) (re.++ (re.* (re.+ (str.to_re "9"))) (re.++ (re.union (re.+ (str.to_re "aa")) (re.+ (str.to_re "bbb"))) (re.++ (re.* (re.* (str.to_re "c"))) (re.++ (re.* (re.* (str.to_re "d"))) (re.++ (re.* (re.union (str.to_re "eee") (str.to_re "f"))) (re.++ (re.+ (re.+ (str.to_re "gg"))) (re.++ (re.* (re.union (str.to_re "hhh") (str.to_re "iii"))) (re.++ (re.* (re.+ (str.to_re "j"))) (re.++ (re.union (re.+ (str.to_re "k")) (re.+ (str.to_re "lll"))) (re.++ (re.union (re.+ (str.to_re "m")) (re.+ (str.to_re "n"))) (re.++ (re.union (re.* (str.to_re "o")) (re.* (str.to_re "p"))) (re.++ (re.* (re.union (str.to_re "qq") (str.to_re "r"))) (re.++ (re.+ (re.union (str.to_re "sss") (str.to_re "t"))) (re.++ (re.* (re.+ (str.to_re "u"))) (re.++ (re.union (re.+ (str.to_re "vv")) (re.+ (str.to_re "ww"))) (re.++ (re.union (re.+ (str.to_re "xxx")) (re.+ (str.to_re "yyy"))) (re.++ (re.+ (re.+ (str.to_re "zzz"))) (re.++ (re.* (re.union (str.to_re "AA") (str.to_re "BB"))) (re.++ (re.+ (re.* (str.to_re "C"))) (re.++ (re.* (re.+ (str.to_re "DDD"))) (re.++ (re.union (re.union (str.to_re "E") (str.to_re "FF")) (re.union (str.to_re "GG") (str.to_re "HHH"))) (re.++ (re.union (re.union (str.to_re "I") (str.to_re "JJJ")) (re.union (str.to_re "K") (str.to_re "LL"))) (re.++ (re.+ (re.* (str.to_re "MMM"))) (re.++ (re.+ (re.* (str.to_re "NNN"))) (re.++ (re.union (re.+ (str.to_re "OOO")) (re.+ (str.to_re "PP"))) (re.++ (re.* (re.* (str.to_re "QQ"))) (re.++ (re.* (re.union (str.to_re "R") (str.to_re "SSS"))) (re.++ (re.+ (re.union (str.to_re "TTT") (str.to_re "UU"))) (re.++ (re.+ (re.+ (str.to_re "VV"))) (re.++ (re.union (re.union (str.to_re "WWW") (str.to_re "X")) (re.union (str.to_re "YY") (str.to_re "ZZ"))) (re.++ (re.+ (re.union (str.to_re "!!") (str.to_re """"""))) (re.++ (re.* (re.+ (str.to_re "##"))) (re.++ (re.union (re.+ (str.to_re "$")) (re.+ (str.to_re "%%%"))) (re.++ (re.+ (re.* (str.to_re "&&&"))) (re.++ (re.+ (re.+ (str.to_re "'"))) (re.++ (re.+ (re.+ (str.to_re "(("))) (re.++ (re.* (re.+ (str.to_re ")))"))) (re.++ (re.union (re.+ (str.to_re "*")) (re.+ (str.to_re "+"))) (re.++ (re.* (re.+ (str.to_re ",,"))) (re.++ (re.union (re.+ (str.to_re "-")) (re.+ (str.to_re "."))) (re.++ (re.union (re.* (str.to_re "/")) (re.* (str.to_re "::"))) (re.++ (re.+ (re.* (str.to_re ";;;"))) (re.++ (re.+ (re.union (str.to_re "<<") (str.to_re "=="))) (re.++ (re.+ (re.+ (str.to_re ">"))) (re.++ (re.union (re.* (str.to_re "??")) (re.* (str.to_re "@@@"))) (re.++ (re.* (re.* (str.to_re "[[["))) (re.++ (re.* (re.+ (str.to_re "\\"))) (re.++ (re.+ (re.* (str.to_re "]]"))) (re.++ (re.union (re.union (str.to_re "^^^") (str.to_re "___")) (re.union (str.to_re "```") (str.to_re "{"))) (re.++ (re.union (re.+ (str.to_re "|||")) (re.+ (str.to_re "}}"))) (re.++ (re.* (re.* (str.to_re "~"))) (re.++ (re.union (re.union (str.to_re "0") (str.to_re "1")) (re.union (str.to_re "222") (str.to_re "333"))) (re.++ (re.union (re.+ (str.to_re "44")) (re.+ (str.to_re "555"))) (re.++ (re.+ (re.union (str.to_re "66") (str.to_re "77"))) (re.++ (re.union (re.union (str.to_re "88") (str.to_re "99")) (re.union (str.to_re "aa") (str.to_re "b"))) (re.++ (re.* (re.* (str.to_re "ccc"))) (re.++ (re.union (re.+ (str.to_re "dd")) (re.+ (str.to_re "eee"))) (re.++ (re.* (re.+ (str.to_re "f"))) (re.++ (re.* (re.+ (str.to_re "g"))) (re.++ (re.+ (re.+ (str.to_re "hhh"))) (re.++ (re.+ (re.union (str.to_re "i") (str.to_re "jj"))) (re.++ (re.* (re.union (str.to_re "kkk") (str.to_re "ll"))) (re.++ (re.* (re.* (str.to_re "m"))) (re.++ (re.* (re.* (str.to_re "nnn"))) (re.++ (re.* (re.* (str.to_re "oo"))) (re.++ (re.union (re.+ (str.to_re "ppp")) (re.+ (str.to_re "q"))) (re.++ (re.+ (re.+ (str.to_re "rrr"))) (re.++ (re.+ (re.union (str.to_re "ss") (str.to_re "tt"))) (re.++ (re.+ (re.* (str.to_re "uu"))) (re.++ (re.union (re.union (str.to_re "vv") (str.to_re "ww")) (re.union (str.to_re "xxx") (str.to_re "yyy"))) (re.++ (re.* (re.union (str.to_re "z") (str.to_re "AA"))) (re.++ (re.* (re.* (str.to_re "BBB"))) (re.++ (re.* (re.union (str.to_re "CCC") (str.to_re "DD"))) (re.++ (re.* (re.union (str.to_re "EEE") (str.to_re "FF"))) (re.++ (re.union (re.* (str.to_re "G")) (re.* (str.to_re "H"))) (re.++ (re.+ (re.+ (str.to_re "III"))) (re.++ (re.* (re.+ (str.to_re "J"))) (re.++ (re.+ (re.+ (str.to_re "KKK"))) (re.++ (re.union (re.union (str.to_re "LL") (str.to_re "MM")) (re.union (str.to_re "NNN") (str.to_re "OO"))) (re.++ (re.union (re.union (str.to_re "PP") (str.to_re "Q")) (re.union (str.to_re "RR") (str.to_re "S"))) (re.++ (re.+ (re.union (str.to_re "T") (str.to_re "U"))) (re.++ (re.+ (re.+ (str.to_re "V"))) (re.++ (re.* (re.* (str.to_re "W"))) (re.++ (re.+ (re.+ (str.to_re "XX"))) (re.++ (re.+ (re.+ (str.to_re "YY"))) (re.++ (re.+ (re.+ (str.to_re "ZZZ"))) (re.++ (re.union (re.+ (str.to_re "!!")) (re.+ (str.to_re """"""))) (re.++ (re.* (re.union (str.to_re "##") (str.to_re "$"))) (re.++ (re.+ (re.union (str.to_re "%%") (str.to_re "&&"))) (re.++ (re.union (re.* (str.to_re "''")) (re.* (str.to_re "(("))) (re.++ (re.union (re.+ (str.to_re ")")) (re.+ (str.to_re "**"))) (re.++ (re.+ (re.* (str.to_re "+"))) (re.++ (re.+ (re.union (str.to_re ",,") (str.to_re "---"))) (re.++ (re.* (re.+ (str.to_re ".."))) (re.++ (re.+ (re.+ (str.to_re "///"))) (re.++ (re.+ (re.+ (str.to_re ":::"))) (re.++ (re.+ (re.+ (str.to_re ";;"))) (re.++ (re.+ (re.* (str.to_re "<<"))) (re.++ (re.union (re.union (str.to_re "=") (str.to_re ">")) (re.union (str.to_re "???") (str.to_re "@"))) (re.++ (re.union (re.* (str.to_re "[[[")) (re.* (str.to_re "\\\\"))) (re.++ (re.union (re.* (str.to_re "]")) (re.* (str.to_re "^^^"))) (re.++ (re.+ (re.union (str.to_re "___") (str.to_re "`"))) (re.++ (re.+ (re.union (str.to_re "{{{") (str.to_re "|"))) (re.++ (re.* (re.union (str.to_re "}}}") (str.to_re "~"))) (re.++ (re.union (re.+ (str.to_re "0")) (re.+ (str.to_re "1"))) (re.++ (re.+ (re.union (str.to_re "2") (str.to_re "33"))) (re.++ (re.+ (re.+ (str.to_re "4"))) (re.++ (re.* (re.+ (str.to_re "555"))) (re.++ (re.+ (re.union (str.to_re "66") (str.to_re "7"))) (re.++ (re.* (re.* (str.to_re "8"))) (re.++ (re.union (re.+ (str.to_re "99")) (re.+ (str.to_re "aa"))) (re.++ (re.* (re.union (str.to_re "bbb") (str.to_re "cc"))) (re.++ (re.+ (re.union (str.to_re "d") (str.to_re "ee"))) (re.++ (re.+ (re.+ (str.to_re "f"))) (re.++ (re.union (re.+ (str.to_re "ggg")) (re.+ (str.to_re "h"))) (re.++ (re.union (re.union (str.to_re "ii") (str.to_re "jjj")) (re.union (str.to_re "k") (str.to_re "l"))) (re.++ (re.+ (re.union (str.to_re "m") (str.to_re "n"))) (re.++ (re.+ (re.+ (str.to_re "ooo"))) (re.++ (re.* (re.union (str.to_re "pp") (str.to_re "qq"))) (re.++ (re.* (re.union (str.to_re "r") (str.to_re "ss"))) (re.++ (re.+ (re.+ (str.to_re "ttt"))) (re.++ (re.* (re.* (str.to_re "uu"))) (re.++ (re.+ (re.+ (str.to_re "vvv"))) (re.++ (re.union (re.+ (str.to_re "ww")) (re.+ (str.to_re "xx"))) (re.++ (re.+ (re.* (str.to_re "y"))) (re.++ (re.union (re.* (str.to_re "z")) (re.* (str.to_re "AAA"))) (re.++ (re.+ (re.* (str.to_re "BBB"))) (re.++ (re.* (re.+ (str.to_re "CC"))) (re.++ (re.union (re.* (str.to_re "DDD")) (re.* (str.to_re "E"))) (re.++ (re.* (re.+ (str.to_re "F"))) (re.++ (re.+ (re.* (str.to_re "GGG"))) (re.++ (re.union (re.* (str.to_re "HHH")) (re.* (str.to_re "II"))) (re.++ (re.* (re.* (str.to_re "JJ"))) (re.++ (re.union (re.* (str.to_re "K")) (re.* (str.to_re "LLL"))) (re.++ (re.union (re.+ (str.to_re "M")) (re.+ (str.to_re "NNN"))) (re.++ (re.* (re.union (str.to_re "O") (str.to_re "PP"))) (re.++ (re.union (re.+ (str.to_re "Q")) (re.+ (str.to_re "R"))) (re.++ (re.+ (re.union (str.to_re "S") (str.to_re "TT"))) (re.++ (re.union (re.union (str.to_re "UU") (str.to_re "VVV")) (re.union (str.to_re "W") (str.to_re "XX"))) (re.++ (re.* (re.* (str.to_re "YY"))) (re.++ (re.* (re.* (str.to_re "ZZ"))) (re.++ (re.union (re.union (str.to_re "!!") (str.to_re """")) (re.union (str.to_re "###") (str.to_re "$"))) (re.++ (re.* (re.+ (str.to_re "%%"))) (re.++ (re.* (re.union (str.to_re "&") (str.to_re "'"))) (re.++ (re.+ (re.union (str.to_re "((") (str.to_re ")"))) (re.++ (re.+ (re.union (str.to_re "*") (str.to_re "++"))) (re.++ (re.+ (re.* (str.to_re ","))) (re.++ (re.* (re.* (str.to_re "---"))) (re.++ (re.+ (re.+ (str.to_re ".."))) (re.++ (re.* (re.* (str.to_re "///"))) (re.++ (re.union (re.* (str.to_re "::")) (re.* (str.to_re ";;"))) (re.++ (re.union (re.+ (str.to_re "<<")) (re.+ (str.to_re "="))) (re.++ (re.union (re.union (str.to_re ">>") (str.to_re "??")) (re.union (str.to_re "@") (str.to_re "["))) (re.++ (re.* (re.* (str.to_re "\\\\\\"))) (re.++ (re.* (re.* (str.to_re "]]"))) (re.++ (re.+ (re.+ (str.to_re "^"))) (re.++ (re.union (re.+ (str.to_re "__")) (re.+ (str.to_re "`"))) (re.++ (re.union (re.+ (str.to_re "{{{")) (re.+ (str.to_re "|||"))) (re.++ (re.union (re.union (str.to_re "}}}") (str.to_re "~~")) (re.union (str.to_re "00") (str.to_re "1"))) (re.++ (re.union (re.union (str.to_re "222") (str.to_re "33")) (re.union (str.to_re "4") (str.to_re "5"))) (re.++ (re.+ (re.* (str.to_re "66"))) (re.++ (re.union (re.union (str.to_re "77") (str.to_re "888")) (re.union (str.to_re "99") (str.to_re "a"))) (re.++ (re.+ (re.union (str.to_re "b") (str.to_re "c"))) (re.++ (re.+ (re.union (str.to_re "ddd") (str.to_re "eee"))) (re.++ (re.+ (re.* (str.to_re "f"))) (re.++ (re.* (re.union (str.to_re "gg") (str.to_re "hhh"))) (re.++ (re.+ (re.union (str.to_re "ii") (str.to_re "j"))) (re.++ (re.* (re.* (str.to_re "kkk"))) (re.++ (re.+ (re.* (str.to_re "l"))) (re.++ (re.* (re.+ (str.to_re "mm"))) (re.++ (re.union (re.* (str.to_re "n")) (re.* (str.to_re "ooo"))) (re.union (re.* (str.to_re "pp")) (re.* (str.to_re "qqq"))))))))))))))))))))))))))))))))))))))))))))))))))))))))))))))))))))))))))))))))))))))))))))))))))))))))))))))))))))))))))))))))))))))))))))))))))))))))))))))))))))))))))))))))))))
(check-sat)